☁  minisat [master] ⚡ docker-compose run minisat minisat dimacs/pigeon-hole-6.cnf
WARNING: for repeatability, setting FPU to use double precision
============================[ Problem Statistics ]=============================
|                                                                             |
|  Number of variables:            42                                         |
|  Number of clauses:             133                                         |
|  Parse time:                   0.00 s                                       |
|  Eliminated clauses:           0.00 Mb                                      |
|  Simplification time:          0.00 s                                       |
|                                                                             |
============================[ Search Statistics ]==============================
| Conflicts |          ORIGINAL         |          LEARNT          | Progress |
|           |    Vars  Clauses Literals |    Limit  Clauses Lit/Cl |          |
===============================================================================
|       100 |      35      126      420 |       46       50     12 |  0.058 % |
|       250 |      35      126      420 |       50       53     11 |  0.058 % |
|       475 |      35      126      420 |       55       53     11 |  0.068 % |
|       812 |      35      126      420 |       61       42     10 |  0.115 % |
===============================================================================
restarts              : 7
conflicts             : 1204           (40820 /sec)
decisions             : 1488           (0.00 % random) (50449 /sec)
propagations          : 12493          (423563 /sec)
conflict literals     : 12602          (16.97 % deleted)
Memory used           : 11.98 MB
CPU time              : 0.029495 s

UNSATISFIABLE
☁  minisat [master] ⚡ docker-compose run minisat minisat dimacs/pigeon-hole-7.cnf
WARNING: for repeatability, setting FPU to use double precision
============================[ Problem Statistics ]=============================
|                                                                             |
|  Number of variables:            56                                         |
|  Number of clauses:             204                                         |
|  Parse time:                   0.00 s                                       |
|  Eliminated clauses:           0.00 Mb                                      |
|  Simplification time:          0.00 s                                       |
|                                                                             |
============================[ Search Statistics ]==============================
| Conflicts |          ORIGINAL         |          LEARNT          | Progress |
|           |    Vars  Clauses Literals |    Limit  Clauses Lit/Cl |          |
===============================================================================
|       100 |      48      196      672 |       71       57     15 |  0.032 % |
|       250 |      48      196      672 |       79       65     16 |  0.032 % |
|       475 |      48      196      672 |       86       85     16 |  0.032 % |
|       812 |      48      196      672 |       95       57     15 |  0.032 % |
|      1318 |      48      196      672 |      105       60     15 |  0.032 % |
|      2077 |      48      196      672 |      115       79     14 |  0.032 % |
|      3216 |      48      196      672 |      127       98     15 |  0.032 % |
|      4924 |      48      196      672 |      140      104     16 |  0.032 % |
|      7486 |      47      189      653 |      154      145     16 |  1.818 % |
|     11330 |      47      189      653 |      169      123     15 |  1.818 % |
===============================================================================
restarts              : 61
conflicts             : 14397          (142989 /sec)
decisions             : 17734          (0.00 % random) (176132 /sec)
propagations          : 166527         (1653924 /sec)
conflict literals     : 230817         (12.95 % deleted)
Memory used           : 11.98 MB
CPU time              : 0.100686 s

UNSATISFIABLE
☁  minisat [master] ⚡ docker-compose run minisat minisat dimacs/pigeon-hole-8.cnf
WARNING: for repeatability, setting FPU to use double precision
============================[ Problem Statistics ]=============================
|                                                                             |
|  Number of variables:            72                                         |
|  Number of clauses:             297                                         |
|  Parse time:                   0.00 s                                       |
|  Eliminated clauses:           0.00 Mb                                      |
|  Simplification time:          0.00 s                                       |
|                                                                             |
============================[ Search Statistics ]==============================
| Conflicts |          ORIGINAL         |          LEARNT          | Progress |
|           |    Vars  Clauses Literals |    Limit  Clauses Lit/Cl |          |
===============================================================================
|       100 |      63      288     1008 |      105      100     23 |  0.020 % |
|       250 |      63      288     1008 |      116      115     25 |  0.020 % |
|       475 |      63      288     1008 |      127      115     22 |  0.020 % |
|       812 |      63      288     1008 |      140       77     21 |  0.020 % |
|      1318 |      63      288     1008 |      154      147     22 |  0.020 % |
|      2077 |      63      288     1008 |      170      164     22 |  0.020 % |
|      3216 |      63      288     1008 |      187      101     20 |  0.020 % |
|      4924 |      63      288     1008 |      205      159     21 |  0.020 % |
|      7486 |      63      288     1008 |      226      194     19 |  0.020 % |
|     11330 |      63      288     1008 |      248      118     20 |  0.020 % |
|     17096 |      63      288     1008 |      273      288     20 |  0.020 % |
|     25745 |      63      288     1008 |      301      272     21 |  0.020 % |
|     38719 |      63      288     1008 |      331      271     20 |  0.020 % |
|     58180 |      62      280      944 |      364      347     17 |  1.408 % |
===============================================================================
restarts              : 240
conflicts             : 75864          (182477 /sec)
decisions             : 92767          (0.00 % random) (223134 /sec)
propagations          : 986186         (2372088 /sec)
conflict literals     : 1586794        (11.19 % deleted)
Memory used           : 11.98 MB
CPU time              : 0.415746 s

UNSATISFIABLE
☁  minisat [master] ⚡ docker-compose run minisat minisat dimacs/pigeon-hole-9.cnf
WARNING: for repeatability, setting FPU to use double precision
============================[ Problem Statistics ]=============================
|                                                                             |
|  Number of variables:            90                                         |
|  Number of clauses:             415                                         |
|  Parse time:                   0.00 s                                       |
|  Eliminated clauses:           0.00 Mb                                      |
|  Simplification time:          0.00 s                                       |
|                                                                             |
============================[ Search Statistics ]==============================
| Conflicts |          ORIGINAL         |          LEARNT          | Progress |
|           |    Vars  Clauses Literals |    Limit  Clauses Lit/Cl |          |
===============================================================================
|       100 |      80      405     1440 |      148      100     28 |  0.012 % |
|       250 |      80      405     1440 |      163      150     30 |  0.012 % |
|       475 |      80      405     1440 |      179      170     27 |  0.012 % |
|       812 |      80      405     1440 |      197      105     26 |  0.012 % |
|      1318 |      80      405     1440 |      217      139     27 |  0.012 % |
|      2077 |      80      405     1440 |      239      154     28 |  0.012 % |
|      3216 |      80      405     1440 |      263      184     28 |  0.012 % |
|      4924 |      80      405     1440 |      289      258     30 |  0.012 % |
|      7486 |      80      405     1440 |      318      250     27 |  0.012 % |
|     11330 |      80      405     1440 |      350      196     26 |  0.012 % |
|     17096 |      80      405     1440 |      385      362     26 |  0.012 % |
|     25745 |      80      405     1440 |      423      313     26 |  0.012 % |
|     38719 |      80      405     1440 |      466      297     23 |  0.012 % |
|     58180 |      80      405     1440 |      512      307     29 |  0.012 % |
|     87372 |      80      405     1440 |      563      390     24 |  0.012 % |
|    131161 |      80      405     1440 |      620      325     28 |  0.012 % |
|    196845 |      80      405     1440 |      682      348     26 |  0.012 % |
|    295371 |      80      405     1440 |      750      715     23 |  0.012 % |
|    443160 |      79      396     1359 |      825      700     25 |  1.124 % |
===============================================================================
restarts              : 1023
conflicts             : 504621         (136636 /sec)
decisions             : 610469         (0.00 % random) (165296 /sec)
propagations          : 6352013        (1719930 /sec)
conflict literals     : 14142772       (9.43 % deleted)
Memory used           : 11.98 MB
CPU time              : 3.69318 s

UNSATISFIABLE
☁  minisat [master] ⚡ docker-compose run minisat minisat dimacs/pigeon-hole-10.cnf
WARNING: for repeatability, setting FPU to use double precision
============================[ Problem Statistics ]=============================
|                                                                             |
|  Number of variables:           110                                         |
|  Number of clauses:             561                                         |
|  Parse time:                   0.00 s                                       |
|  Eliminated clauses:           0.00 Mb                                      |
|  Simplification time:          0.00 s                                       |
|                                                                             |
============================[ Search Statistics ]==============================
| Conflicts |          ORIGINAL         |          LEARNT          | Progress |
|           |    Vars  Clauses Literals |    Limit  Clauses Lit/Cl |          |
===============================================================================
|       100 |      99      550     1980 |      201      100     31 |  0.008 % |
|       250 |      99      550     1980 |      221      250     39 |  0.008 % |
|       475 |      99      550     1980 |      244      205     38 |  0.008 % |
|       812 |      99      550     1980 |      268      246     35 |  0.008 % |
|      1318 |      99      550     1980 |      295      275     39 |  0.008 % |
|      2077 |      99      550     1980 |      324      354     38 |  0.008 % |
|      3216 |      99      550     1980 |      357      209     37 |  0.008 % |
|      4924 |      99      550     1980 |      392      313     38 |  0.008 % |
|      7486 |      99      550     1980 |      432      269     34 |  0.008 % |
|     11330 |      99      550     1980 |      475      312     37 |  0.008 % |
|     17096 |      99      550     1980 |      523      435     34 |  0.008 % |
|     25745 |      99      550     1980 |      575      349     33 |  0.008 % |
|     38719 |      99      550     1980 |      632      603     35 |  0.008 % |
|     58180 |      99      550     1980 |      696      428     34 |  0.008 % |
|     87372 |      99      550     1980 |      765      741     36 |  0.008 % |
|    131161 |      99      550     1980 |      842      710     38 |  0.008 % |
|    196845 |      99      550     1980 |      926      834     31 |  0.008 % |
|    295371 |      99      550     1980 |     1019      718     37 |  0.008 % |
|    443160 |      99      550     1980 |     1121      701     36 |  0.008 % |
|    664843 |      99      550     1980 |     1233      597     36 |  0.008 % |
|    997368 |      99      550     1980 |     1356     1139     34 |  0.008 % |
|   1496156 |      99      550     1980 |     1492      759     34 |  0.008 % |
|   2244338 |      99      550     1980 |     1641     1507     38 |  0.008 % |
|   3366612 |      99      550     1980 |     1805     1590     38 |  0.008 % |
|   5050023 |      97      530     1932 |     1986     1662     34 |  1.827 % |
===============================================================================
restarts              : 9307
conflicts             : 5869722        (84672 /sec)
decisions             : 7053110        (0.00 % random) (101742 /sec)
propagations          : 77428833       (1116923 /sec)
conflict literals     : 205401517      (8.87 % deleted)
Memory used           : 11.98 MB
CPU time              : 69.3233 s

UNSATISFIABLE
☁  minisat [master] ⚡ docker-compose run minisat minisat dimacs/pigeon-hole-11.cnf
WARNING: for repeatability, setting FPU to use double precision
============================[ Problem Statistics ]=============================
|                                                                             |
|  Number of variables:           132                                         |
|  Number of clauses:             738                                         |
|  Parse time:                   0.00 s                                       |
|  Eliminated clauses:           0.00 Mb                                      |
|  Simplification time:          0.00 s                                       |
|                                                                             |
============================[ Search Statistics ]==============================
| Conflicts |          ORIGINAL         |          LEARNT          | Progress |
|           |    Vars  Clauses Literals |    Limit  Clauses Lit/Cl |          |
===============================================================================
|       100 |     120      726     2640 |      266      100     34 |  0.006 % |
|       250 |     120      726     2640 |      292      250     44 |  0.006 % |
|       475 |     120      726     2640 |      322      290     44 |  0.006 % |
|       812 |     120      726     2640 |      354      229     40 |  0.006 % |
|      1318 |     120      726     2640 |      389      315     36 |  0.006 % |
|      2077 |     120      726     2640 |      428      266     37 |  0.006 % |
|      3216 |     120      726     2640 |      471      396     43 |  0.006 % |
|      4924 |     120      726     2640 |      518      295     46 |  0.006 % |
|      7486 |     120      726     2640 |      570      568     47 |  0.006 % |
|     11330 |     120      726     2640 |      627      378     46 |  0.006 % |
|     17096 |     120      726     2640 |      690      391     43 |  0.006 % |
|     25745 |     120      726     2640 |      759      498     46 |  0.006 % |
|     38719 |     120      726     2640 |      835      537     45 |  0.006 % |
|     58180 |     120      726     2640 |      918      472     46 |  0.006 % |
|     87372 |     120      726     2640 |     1010      639     39 |  0.006 % |
|    131161 |     120      726     2640 |     1111      735     42 |  0.006 % |
|    196845 |     120      726     2640 |     1223     1065     47 |  0.006 % |
|    295371 |     120      726     2640 |     1345     1015     42 |  0.006 % |
|    443160 |     120      726     2640 |     1480     1148     44 |  0.006 % |
|    664843 |     120      726     2640 |     1628      962     47 |  0.006 % |
|    997368 |     120      726     2640 |     1790     1710     49 |  0.006 % |
|   1496156 |     120      726     2640 |     1969     1049     43 |  0.006 % |
|   2244338 |     120      726     2640 |     2166     1614     44 |  0.006 % |
|   3366612 |     120      726     2640 |     2383     1732     43 |  0.006 % |
|   5050023 |     120      726     2640 |     2621     2331     42 |  0.006 % |
|   7575139 |     120      726     2640 |     2884     2317     43 |  0.006 % |
|  11362814 |     120      726     2640 |     3172     1567     36 |  0.006 % |
|  17044326 |     120      726     2640 |     3489     1669     46 |  0.006 % |
|  25566595 |     120      726     2640 |     3838     2429     45 |  0.006 % |
|  38349998 |     119      715     2519 |     4222     2569     47 |  0.763 % |
|  57525103 |     119      715     2519 |     4645     3490     44 |  0.763 % |
|  86287761 |     118      704     2497 |     5109     4447     46 |  1.521 % |
| 129431749 |     117      693     2475 |     5620     2609     46 |  2.279 % |
| 194147731 |     113      649     2380 |     6182     5541     44 |  5.309 % |
===============================================================================
restarts              : 262141
conflicts             : 215164397      (37808 /sec)
decisions             : 256255725      (0.00 % random) (45028 /sec)
propagations          : 2879776044     (506023 /sec)
conflict literals     : 9480725365     (8.29 % deleted)
Memory used           : 19.72 MB
CPU time              : 5690.99 s

UNSATISFIABLE